NAME /Users/henri/Research/solvers/instances/idol-instances/robust/collection/spp_dkp_Lefebvre_et_al_2026/shortest_path_7_2/uncertainty_sets/discrete_knapsack
ROWS
 N  OBJ
 L  primal_lower
COLUMNS
    MARKER    'MARKER'                 'INTORG'
    y[0,1]     OBJ        0
    y[0,1]     primal_lower -4.15
    y[0,2]     OBJ        0
    y[0,2]     primal_lower -0.52
    y[0,3]     OBJ        0
    y[0,3]     primal_lower -3.7
    y[0,4]     OBJ        0
    y[0,4]     primal_lower -1.79
    y[0,5]     OBJ        0
    y[0,5]     primal_lower -1.79
    y[0,6]     OBJ        0
    y[0,6]     primal_lower -3.03
    y[1,0]     OBJ        0
    y[1,0]     primal_lower -1.96
    y[1,3]     OBJ        0
    y[1,3]     primal_lower -2.03
    y[2,0]     OBJ        0
    y[2,0]     primal_lower -2.53
    y[2,3]     OBJ        0
    y[2,3]     primal_lower -3.53
    y[2,4]     OBJ        0
    y[2,4]     primal_lower -4.77
    y[2,5]     OBJ        0
    y[2,5]     primal_lower -2.27
    y[2,6]     OBJ        0
    y[2,6]     primal_lower -2.13
    y[3,0]     OBJ        0
    y[3,0]     primal_lower -0.56
    y[3,1]     OBJ        0
    y[3,1]     primal_lower -1.08
    y[3,2]     OBJ        0
    y[3,2]     primal_lower -4.76
    y[3,4]     OBJ        0
    y[3,4]     primal_lower -4.69
    y[3,5]     OBJ        0
    y[3,5]     primal_lower -4.38
    y[3,6]     OBJ        0
    y[3,6]     primal_lower -3.21
    y[4,0]     OBJ        0
    y[4,0]     primal_lower -1.06
    y[4,2]     OBJ        0
    y[4,2]     primal_lower -3.17
    y[4,3]     OBJ        0
    y[4,3]     primal_lower -0.69
    y[4,5]     OBJ        0
    y[4,5]     primal_lower -2.28
    y[4,6]     OBJ        0
    y[4,6]     primal_lower -4.34
    y[5,0]     OBJ        0
    y[5,0]     primal_lower -1.28
    y[5,2]     OBJ        0
    y[5,2]     primal_lower -3.3
    y[5,3]     OBJ        0
    y[5,3]     primal_lower -4.29
    y[5,4]     OBJ        0
    y[5,4]     primal_lower -0.74
    y[5,6]     OBJ        0
    y[5,6]     primal_lower -2.8
    y[6,0]     OBJ        0
    y[6,0]     primal_lower -0.79
    y[6,2]     OBJ        0
    y[6,2]     primal_lower -0.86
    y[6,3]     OBJ        0
    y[6,3]     primal_lower -0.52
    y[6,4]     OBJ        0
    y[6,4]     primal_lower -1.01
    y[6,5]     OBJ        0
    y[6,5]     primal_lower -2.26
    u[0,1]     OBJ        0
    u[0,1]     primal_lower 77
    u[0,2]     OBJ        0
    u[0,2]     primal_lower 11
    u[0,3]     OBJ        0
    u[0,3]     primal_lower 77
    u[0,4]     OBJ        0
    u[0,4]     primal_lower 60
    u[0,5]     OBJ        0
    u[0,5]     primal_lower 43
    u[0,6]     OBJ        0
    u[0,6]     primal_lower 49
    u[1,0]     OBJ        0
    u[1,0]     primal_lower 76
    u[1,3]     OBJ        0
    u[1,3]     primal_lower 61
    u[2,0]     OBJ        0
    u[2,0]     primal_lower 89
    u[2,3]     OBJ        0
    u[2,3]     primal_lower 51
    u[2,4]     OBJ        0
    u[2,4]     primal_lower 39
    u[2,5]     OBJ        0
    u[2,5]     primal_lower 58
    u[2,6]     OBJ        0
    u[2,6]     primal_lower 30
    u[3,0]     OBJ        0
    u[3,0]     primal_lower 7
    u[3,1]     OBJ        0
    u[3,1]     primal_lower 29
    u[3,2]     OBJ        0
    u[3,2]     primal_lower 17
    u[3,4]     OBJ        0
    u[3,4]     primal_lower 74
    u[3,5]     OBJ        0
    u[3,5]     primal_lower 56
    u[3,6]     OBJ        0
    u[3,6]     primal_lower 11
    u[4,0]     OBJ        0
    u[4,0]     primal_lower 28
    u[4,2]     OBJ        0
    u[4,2]     primal_lower 57
    u[4,3]     OBJ        0
    u[4,3]     primal_lower 88
    u[4,5]     OBJ        0
    u[4,5]     primal_lower 80
    u[4,6]     OBJ        0
    u[4,6]     primal_lower 100
    u[5,0]     OBJ        0
    u[5,0]     primal_lower 97
    u[5,2]     OBJ        0
    u[5,2]     primal_lower 84
    u[5,3]     OBJ        0
    u[5,3]     primal_lower 41
    u[5,4]     OBJ        0
    u[5,4]     primal_lower 51
    u[5,6]     OBJ        0
    u[5,6]     primal_lower 22
    u[6,0]     OBJ        0
    u[6,0]     primal_lower 96
    u[6,2]     OBJ        0
    u[6,2]     primal_lower 26
    u[6,3]     OBJ        0
    u[6,3]     primal_lower 29
    u[6,4]     OBJ        0
    u[6,4]     primal_lower 54
    u[6,5]     OBJ        0
    u[6,5]     primal_lower 95
    MARKER    'MARKER'                 'INTEND'
RHS
    RHS       primal_lower 169
BOUNDS
 LI BND       y[0,1]     0
 UI BND       y[0,1]     1
 LI BND       y[0,2]     0
 UI BND       y[0,2]     1
 LI BND       y[0,3]     0
 UI BND       y[0,3]     1
 LI BND       y[0,4]     0
 UI BND       y[0,4]     1
 LI BND       y[0,5]     0
 UI BND       y[0,5]     1
 LI BND       y[0,6]     0
 UI BND       y[0,6]     1
 LI BND       y[1,0]     0
 UI BND       y[1,0]     1
 LI BND       y[1,3]     0
 UI BND       y[1,3]     1
 LI BND       y[2,0]     0
 UI BND       y[2,0]     1
 LI BND       y[2,3]     0
 UI BND       y[2,3]     1
 LI BND       y[2,4]     0
 UI BND       y[2,4]     1
 LI BND       y[2,5]     0
 UI BND       y[2,5]     1
 LI BND       y[2,6]     0
 UI BND       y[2,6]     1
 LI BND       y[3,0]     0
 UI BND       y[3,0]     1
 LI BND       y[3,1]     0
 UI BND       y[3,1]     1
 LI BND       y[3,2]     0
 UI BND       y[3,2]     1
 LI BND       y[3,4]     0
 UI BND       y[3,4]     1
 LI BND       y[3,5]     0
 UI BND       y[3,5]     1
 LI BND       y[3,6]     0
 UI BND       y[3,6]     1
 LI BND       y[4,0]     0
 UI BND       y[4,0]     1
 LI BND       y[4,2]     0
 UI BND       y[4,2]     1
 LI BND       y[4,3]     0
 UI BND       y[4,3]     1
 LI BND       y[4,5]     0
 UI BND       y[4,5]     1
 LI BND       y[4,6]     0
 UI BND       y[4,6]     1
 LI BND       y[5,0]     0
 UI BND       y[5,0]     1
 LI BND       y[5,2]     0
 UI BND       y[5,2]     1
 LI BND       y[5,3]     0
 UI BND       y[5,3]     1
 LI BND       y[5,4]     0
 UI BND       y[5,4]     1
 LI BND       y[5,6]     0
 UI BND       y[5,6]     1
 LI BND       y[6,0]     0
 UI BND       y[6,0]     1
 LI BND       y[6,2]     0
 UI BND       y[6,2]     1
 LI BND       y[6,3]     0
 UI BND       y[6,3]     1
 LI BND       y[6,4]     0
 UI BND       y[6,4]     1
 LI BND       y[6,5]     0
 UI BND       y[6,5]     1
 LI BND       u[0,1]     0
 UI BND       u[0,1]     1
 LI BND       u[0,2]     0
 UI BND       u[0,2]     1
 LI BND       u[0,3]     0
 UI BND       u[0,3]     1
 LI BND       u[0,4]     0
 UI BND       u[0,4]     1
 LI BND       u[0,5]     0
 UI BND       u[0,5]     1
 LI BND       u[0,6]     0
 UI BND       u[0,6]     1
 LI BND       u[1,0]     0
 UI BND       u[1,0]     1
 LI BND       u[1,3]     0
 UI BND       u[1,3]     1
 LI BND       u[2,0]     0
 UI BND       u[2,0]     1
 LI BND       u[2,3]     0
 UI BND       u[2,3]     1
 LI BND       u[2,4]     0
 UI BND       u[2,4]     1
 LI BND       u[2,5]     0
 UI BND       u[2,5]     1
 LI BND       u[2,6]     0
 UI BND       u[2,6]     1
 LI BND       u[3,0]     0
 UI BND       u[3,0]     1
 LI BND       u[3,1]     0
 UI BND       u[3,1]     1
 LI BND       u[3,2]     0
 UI BND       u[3,2]     1
 LI BND       u[3,4]     0
 UI BND       u[3,4]     1
 LI BND       u[3,5]     0
 UI BND       u[3,5]     1
 LI BND       u[3,6]     0
 UI BND       u[3,6]     1
 LI BND       u[4,0]     0
 UI BND       u[4,0]     1
 LI BND       u[4,2]     0
 UI BND       u[4,2]     1
 LI BND       u[4,3]     0
 UI BND       u[4,3]     1
 LI BND       u[4,5]     0
 UI BND       u[4,5]     1
 LI BND       u[4,6]     0
 UI BND       u[4,6]     1
 LI BND       u[5,0]     0
 UI BND       u[5,0]     1
 LI BND       u[5,2]     0
 UI BND       u[5,2]     1
 LI BND       u[5,3]     0
 UI BND       u[5,3]     1
 LI BND       u[5,4]     0
 UI BND       u[5,4]     1
 LI BND       u[5,6]     0
 UI BND       u[5,6]     1
 LI BND       u[6,0]     0
 UI BND       u[6,0]     1
 LI BND       u[6,2]     0
 UI BND       u[6,2]     1
 LI BND       u[6,3]     0
 UI BND       u[6,3]     1
 LI BND       u[6,4]     0
 UI BND       u[6,4]     1
 LI BND       u[6,5]     0
 UI BND       u[6,5]     1
ENDATA
